Geographic Exponential Decay
20 70 233 255 110 215 104 218 120 171 174 270 121 129 292 225 149 28 130 181 265
p edge 320 1257
e 0 127 1.0
e 0 96 1.0
e 1 30 6.0
e 1 222 10.0
e 1 307 17.0
e 1 251 7.0
e 1 59 13.0
e 1 44 23.0
e 1 60 12.0
e 1 34 24.0
e 1 211 23.0
e 1 193 12.0
e 2 178 1.0
e 2 314 2.0
e 3 143 2.0
e 3 158 5.0
e 3 12 2.0
e 4 157 8.0
e 4 138 8.0
e 4 266 10.0
e 4 36 2.0
e 4 63 2.0
e 5 135 3.0
e 5 238 7.0
e 6 246 6.0
e 6 174 56.0
e 7 254 3.0
e 7 235 2.0
e 8 120 45.0
e 8 82 1.0
e 9 22 3.0
e 9 61 4.0
e 9 53 5.0
e 9 311 9.0
e 9 44 2.0
e 10 279 1.0
e 10 296 1.0
e 11 214 3.0
e 11 216 1.0
e 12 197 2.0
e 13 318 6.0
e 13 77 2.0
e 14 18 2.0
e 14 69 3.0
e 14 294 5.0
e 15 105 4.0
e 15 234 2.0
e 15 217 5.0
e 16 254 1.0
e 16 118 2.0
e 17 204 9.0
e 17 60 1.0
e 17 130 59.0
e 18 307 4.0
e 19 20 11.0
e 19 249 1.0
e 20 118 3.0
e 20 180 2.0
e 20 155 7.0
e 20 228 17.0
e 21 261 1.0
e 21 232 9.0
e 22 201 1.0
e 23 179 1.0
e 23 38 1.0
e 24 169 1.0
e 24 83 3.0
e 25 236 1.0
e 25 223 4.0
e 25 194 1.0
e 26 44 2.0
e 26 42 2.0
e 27 42 2.0
e 27 94 1.0
e 28 152 96.0
e 28 175 85.0
e 28 198 1.0
e 28 169 95.0
e 28 66 43.0
e 28 194 83.0
e 28 163 75.0
e 28 122 20.0
e 28 75 8.0
e 28 137 55.0
e 28 7 94.0
e 28 311 96.0
e 28 0 87.0
e 28 264 77.0
e 28 221 91.0
e 28 196 59.0
e 28 70 68.0
e 28 164 34.0
e 28 225 40.0
e 28 284 34.0
e 28 89 95.0
e 28 131 39.0
e 28 127 42.0
e 28 293 42.0
e 28 273 22.0
e 28 197 88.0
e 28 51 74.0
e 28 299 61.0
e 28 313 69.0
e 28 199 61.0
e 28 19 91.0
e 28 86 33.0
e 28 160 77.0
e 28 156 97.0
e 28 46 85.0
e 28 180 76.0
e 28 140 40.0
e 29 277 7.0
e 29 219 1.0
e 29 33 2.0
e 30 240 4.0
e 31 109 4.0
e 31 14 2.0
e 32 127 4.0
e 32 95 1.0
e 32 125 3.0
e 33 158 2.0
e 33 4 2.0
e 34 89 1.0
e 35 195 8.0
e 35 202 3.0
e 35 134 1.0
e 35 97 11.0
e 35 223 9.0
e 36 105 1.0
e 37 64 2.0
e 37 103 8.0
e 38 32 1.0
e 39 121 80.0
e 39 56 3.0
e 39 65 4.0
e 40 67 4.0
e 40 109 3.0
e 41 59 4.0
e 41 267 2.0
e 41 172 1.0
e 43 195 1.0
e 43 175 5.0
e 43 0 1.0
e 45 93 21.0
e 45 271 19.0
e 45 283 40.0
e 45 131 5.0
e 45 181 50.0
e 45 141 3.0
e 45 116 8.0
e 45 86 16.0
e 45 207 1.0
e 45 244 23.0
e 46 168 1.0
e 47 250 1.0
e 47 270 9.0
e 47 126 7.0
e 48 179 4.0
e 48 163 1.0
e 48 271 2.0
e 49 288 1.0
e 49 113 1.0
e 50 247 41.0
e 50 27 39.0
e 50 263 1.0
e 50 137 38.0
e 50 215 77.0
e 50 264 40.0
e 50 156 21.0
e 50 242 50.0
e 50 265 95.0
e 50 267 19.0
e 50 56 40.0
e 50 183 22.0
e 50 117 20.0
e 50 139 1.0
e 50 287 4.0
e 50 316 23.0
e 50 307 45.0
e 50 100 39.0
e 50 113 40.0
e 51 25 1.0
e 52 246 2.0
e 52 156 10.0
e 52 138 5.0
e 53 129 15.0
e 54 156 13.0
e 54 234 26.0
e 54 151 6.0
e 54 243 14.0
e 54 306 36.0
e 54 78 25.0
e 54 289 5.0
e 54 135 12.0
e 54 207 28.0
e 54 30 35.0
e 54 43 46.0
e 54 200 24.0
e 54 100 37.0
e 54 24 1.0
e 54 61 25.0
e 54 181 41.0
e 54 45 48.0
e 54 299 13.0
e 54 48 20.0
e 55 210 3.0
e 55 10 3.0
e 55 80 2.0
e 57 4 39.0
e 57 67 8.0
e 57 139 4.0
e 57 28 15.0
e 57 276 23.0
e 57 224 19.0
e 57 205 46.0
e 57 48 47.0
e 57 120 65.0
e 57 237 10.0
e 57 127 45.0
e 57 59 27.0
e 57 167 19.0
e 57 190 42.0
e 57 149 10.0
e 57 49 1.0
e 57 185 10.0
e 57 272 6.0
e 57 269 12.0
e 58 243 1.0
e 58 149 70.0
e 61 65 1.0
e 62 264 1.0
e 62 248 2.0
e 63 210 1.0
e 64 137 5.0
e 64 102 2.0
e 65 274 3.0
e 66 264 4.0
e 66 144 3.0
e 67 131 2.0
e 68 128 2.0
e 68 1 1.0
e 68 202 1.0
e 69 68 3.0
e 69 25 2.0
e 70 106 4.0
e 70 282 73.0
e 70 176 57.0
e 70 107 18.0
e 70 226 78.0
e 70 144 44.0
e 70 30 41.0
e 70 4 20.0
e 70 128 69.0
e 70 153 69.0
e 70 251 37.0
e 70 186 80.0
e 70 199 55.0
e 70 130 73.0
e 70 241 16.0
e 70 308 87.0
e 70 29 46.0
e 70 195 7.0
e 70 180 62.0
e 70 150 81.0
e 70 76 32.0
e 70 109 95.0
e 70 249 49.0
e 70 294 94.0
e 70 113 7.0
e 70 119 84.0
e 70 188 84.0
e 70 234 72.0
e 70 77 81.0
e 70 309 86.0
e 70 223 82.0
e 70 259 53.0
e 70 31 6.0
e 70 41 31.0
e 70 197 79.0
e 70 301 46.0
e 71 225 97.0
e 71 266 3.0
e 72 267 2.0
e 72 68 1.0
e 73 284 1.0
e 73 305 11.0
e 73 296 5.0
e 74 178 4.0
e 74 6 11.0
e 74 114 7.0
e 74 158 7.0
e 74 40 2.0
e 75 178 3.0
e 76 305 7.0
e 76 294 2.0
e 78 50 31.0
e 78 282 6.0
e 79 81 2.0
e 79 214 2.0
e 80 172 1.0
e 81 78 3.0
e 82 54 25.0
e 83 251 2.0
e 83 49 3.0
e 84 225 10.0
e 84 292 9.0
e 84 104 59.0
e 84 67 8.0
e 84 149 50.0
e 85 130 100.0
e 85 262 1.0
e 86 309 10.0
e 87 134 2.0
e 87 140 2.0
e 88 220 29.0
e 88 226 44.0
e 88 81 38.0
e 88 235 18.0
e 88 34 18.0
e 88 198 40.0
e 88 67 44.0
e 88 175 48.0
e 88 203 29.0
e 88 35 18.0
e 88 127 31.0
e 88 254 18.0
e 88 310 24.0
e 88 141 43.0
e 88 60 8.0
e 88 128 41.0
e 88 186 3.0
e 88 129 67.0
e 88 313 3.0
e 90 185 23.0
e 90 255 91.0
e 91 301 5.0
e 91 290 10.0
e 91 162 3.0
e 91 32 5.0
e 91 54 18.0
e 92 137 1.0
e 92 1 3.0
e 92 157 11.0
e 93 309 1.0
e 94 49 1.0
e 95 296 1.0
e 96 160 1.0
e 96 154 7.0
e 96 179 2.0
e 96 11 7.0
e 97 265 56.0
e 98 42 2.0
e 98 45 21.0
e 99 232 7.0
e 99 72 11.0
e 99 317 1.0
e 99 51 12.0
e 99 12 2.0
e 100 168 8.0
e 100 272 21.0
e 100 306 16.0
e 100 264 8.0
e 100 119 11.0
e 100 209 3.0
e 100 89 6.0
e 100 41 23.0
e 101 13 11.0
e 101 28 12.0
e 101 308 18.0
e 101 150 16.0
e 101 77 5.0
e 101 300 16.0
e 101 288 4.0
e 101 66 1.0
e 101 184 9.0
e 101 11 15.0
e 102 215 1.0
e 103 145 5.0
e 103 54 43.0
e 103 282 5.0
e 103 256 10.0
e 104 303 64.0
e 104 219 16.0
e 104 137 94.0
e 104 89 95.0
e 104 255 40.0
e 104 299 23.0
e 104 47 81.0
e 104 60 33.0
e 104 6 91.0
e 104 263 16.0
e 104 171 95.0
e 104 15 40.0
e 104 34 82.0
e 104 170 66.0
e 104 264 40.0
e 104 28 40.0
e 104 195 8.0
e 104 302 76.0
e 104 258 41.0
e 104 187 29.0
e 104 165 31.0
e 104 188 88.0
e 104 9 45.0
e 104 245 8.0
e 104 300 68.0
e 104 112 39.0
e 104 233 36.0
e 104 102 96.0
e 104 246 96.0
e 104 247 46.0
e 104 308 17.0
e 104 128 30.0
e 104 66 50.0
e 104 273 41.0
e 104 53 98.0
e 104 152 61.0
e 106 186 5.0
e 107 145 5.0
e 108 27 1.0
e 108 268 6.0
e 110 113 42.0
e 110 91 83.0
e 110 184 5.0
e 110 314 98.0
e 110 303 25.0
e 110 118 63.0
e 110 117 46.0
e 110 273 34.0
e 110 241 16.0
e 110 106 36.0
e 110 124 48.0
e 110 242 8.0
e 110 128 50.0
e 110 269 70.0
e 110 49 10.0
e 110 147 68.0
e 110 193 33.0
e 110 176 58.0
e 110 254 33.0
e 110 258 84.0
e 110 172 54.0
e 110 115 38.0
e 110 224 47.0
e 110 81 7.0
e 110 173 28.0
e 110 5 96.0
e 110 43 29.0
e 110 278 15.0
e 110 86 75.0
e 110 244 44.0
e 110 220 87.0
e 110 239 3.0
e 110 98 45.0
e 110 77 100.0
e 110 177 76.0
e 110 300 61.0
e 110 211 69.0
e 111 119 2.0
e 111 197 4.0
e 111 312 7.0
e 112 74 2.0
e 114 123 2.0
e 115 285 1.0
e 115 35 7.0
e 116 161 5.0
e 116 78 3.0
e 120 260 85.0
e 120 91 52.0
e 120 238 15.0
e 120 308 32.0
e 120 262 74.0
e 120 194 45.0
e 120 313 82.0
e 120 187 64.0
e 120 59 96.0
e 120 42 81.0
e 120 251 65.0
e 120 109 9.0
e 120 184 32.0
e 120 92 10.0
e 120 209 29.0
e 120 291 27.0
e 120 275 69.0
e 120 50 88.0
e 120 69 60.0
e 120 132 44.0
e 120 145 1.0
e 120 34 52.0
e 120 152 10.0
e 120 110 9.0
e 120 133 70.0
e 120 43 28.0
e 120 278 73.0
e 120 314 3.0
e 120 48 89.0
e 120 208 51.0
e 120 284 36.0
e 120 6 20.0
e 120 182 36.0
e 120 98 83.0
e 120 22 76.0
e 121 25 12.0
e 121 26 70.0
e 121 213 49.0
e 121 137 100.0
e 121 305 6.0
e 121 229 38.0
e 121 299 44.0
e 121 309 5.0
e 121 48 93.0
e 121 234 5.0
e 121 82 88.0
e 121 237 94.0
e 121 232 19.0
e 121 183 69.0
e 121 215 4.0
e 121 267 42.0
e 121 3 60.0
e 121 69 99.0
e 121 247 30.0
e 121 135 64.0
e 121 150 65.0
e 121 142 53.0
e 121 27 89.0
e 121 169 22.0
e 121 212 41.0
e 121 98 94.0
e 121 42 87.0
e 121 281 91.0
e 121 104 60.0
e 121 274 59.0
e 121 216 67.0
e 121 71 16.0
e 121 290 70.0
e 121 198 24.0
e 121 233 92.0
e 121 291 15.0
e 122 99 3.0
e 123 296 2.0
e 124 109 5.0
e 124 137 5.0
e 125 235 10.0
e 125 260 2.0
e 125 208 6.0
e 125 257 1.0
e 126 317 4.0
e 126 91 4.0
e 126 21 11.0
e 126 14 9.0
e 129 67 41.0
e 129 48 88.0
e 129 49 87.0
e 129 23 27.0
e 129 42 97.0
e 129 181 10.0
e 129 123 30.0
e 129 147 48.0
e 129 74 53.0
e 129 8 17.0
e 129 35 64.0
e 129 133 72.0
e 129 200 96.0
e 129 194 11.0
e 129 258 42.0
e 129 176 5.0
e 129 58 57.0
e 129 55 91.0
e 129 7 84.0
e 129 286 58.0
e 129 299 50.0
e 129 12 6.0
e 129 82 41.0
e 129 302 90.0
e 129 145 93.0
e 129 167 26.0
e 129 191 39.0
e 129 148 7.0
e 129 76 60.0
e 129 143 70.0
e 129 61 69.0
e 129 149 60.0
e 129 213 67.0
e 129 146 25.0
e 129 62 82.0
e 130 144 33.0
e 130 301 12.0
e 130 61 5.0
e 130 318 83.0
e 130 133 56.0
e 130 204 25.0
e 130 159 44.0
e 130 214 73.0
e 130 203 54.0
e 130 276 93.0
e 130 215 69.0
e 130 5 24.0
e 130 108 95.0
e 130 212 87.0
e 130 105 44.0
e 130 254 28.0
e 130 40 44.0
e 130 263 92.0
e 130 175 79.0
e 130 18 20.0
e 130 174 66.0
e 130 317 86.0
e 130 234 70.0
e 130 270 57.0
e 130 77 77.0
e 130 2 27.0
e 130 249 28.0
e 130 288 50.0
e 130 26 27.0
e 130 120 69.0
e 130 286 88.0
e 130 176 62.0
e 130 287 61.0
e 130 177 68.0
e 132 103 3.0
e 132 0 7.0
e 132 176 7.0
e 132 194 3.0
e 136 56 2.0
e 136 72 2.0
e 138 177 5.0
e 139 26 3.0
e 142 236 1.0
e 146 218 27.0
e 146 112 3.0
e 146 294 41.0
e 146 288 35.0
e 146 206 10.0
e 146 201 40.0
e 146 207 34.0
e 146 25 35.0
e 146 186 25.0
e 146 209 43.0
e 146 197 28.0
e 146 11 16.0
e 146 90 33.0
e 146 43 7.0
e 146 17 30.0
e 146 63 47.0
e 146 151 36.0
e 146 271 32.0
e 147 52 2.0
e 148 183 2.0
e 149 248 27.0
e 149 104 99.0
e 149 111 95.0
e 149 115 82.0
e 149 290 5.0
e 149 114 19.0
e 149 30 18.0
e 149 200 4.0
e 149 60 41.0
e 149 88 49.0
e 149 63 36.0
e 149 34 14.0
e 149 272 42.0
e 149 273 85.0
e 149 65 46.0
e 149 274 42.0
e 149 311 79.0
e 149 238 46.0
e 149 164 72.0
e 149 66 31.0
e 149 192 15.0
e 149 193 83.0
e 149 275 72.0
e 149 225 67.0
e 149 159 45.0
e 149 103 77.0
e 149 7 58.0
e 149 67 57.0
e 149 307 91.0
e 149 191 62.0
e 149 316 10.0
e 149 165 93.0
e 149 249 97.0
e 153 61 6.0
e 153 205 21.0
e 153 55 2.0
e 153 56 12.0
e 154 143 1.0
e 155 277 4.0
e 155 27 2.0
e 156 51 10.0
e 157 214 6.0
e 157 265 76.0
e 157 158 1.0
e 159 230 18.0
e 159 189 1.0
e 159 220 1.0
e 160 122 1.0
e 161 189 1.0
e 162 131 3.0
e 162 33 3.0
e 163 77 5.0
e 165 13 2.0
e 165 45 7.0
e 165 181 88.0
e 166 309 2.0
e 166 137 2.0
e 166 68 2.0
e 167 125 1.0
e 170 2 7.0
e 170 257 1.0
e 170 167 10.0
e 170 34 10.0
e 171 9 80.0
e 171 144 57.0
e 171 268 4.0
e 171 209 96.0
e 171 184 96.0
e 171 51 43.0
e 171 111 18.0
e 171 204 24.0
e 171 267 28.0
e 171 300 15.0
e 171 301 59.0
e 171 227 100.0
e 171 266 19.0
e 171 64 3.0
e 171 87 62.0
e 171 90 90.0
e 171 312 91.0
e 171 31 64.0
e 171 20 48.0
e 171 289 74.0
e 171 199 90.0
e 171 210 75.0
e 171 206 82.0
e 171 130 17.0
e 171 309 90.0
e 171 262 41.0
e 171 313 28.0
e 171 81 34.0
e 171 207 56.0
e 171 208 69.0
e 171 239 1.0
e 171 21 11.0
e 171 83 46.0
e 171 53 3.0
e 171 152 62.0
e 171 212 22.0
e 173 263 4.0
e 173 33 1.0
e 174 49 81.0
e 174 66 24.0
e 174 94 31.0
e 174 240 22.0
e 174 74 17.0
e 174 233 11.0
e 174 110 63.0
e 174 235 15.0
e 174 98 66.0
e 174 118 28.0
e 174 80 30.0
e 174 239 14.0
e 174 269 31.0
e 174 278 81.0
e 174 273 89.0
e 174 61 29.0
e 174 210 22.0
e 174 108 28.0
e 174 215 62.0
e 174 221 26.0
e 174 241 5.0
e 174 103 3.0
e 174 305 28.0
e 174 237 97.0
e 174 142 11.0
e 174 84 95.0
e 174 29 50.0
e 174 181 52.0
e 174 101 14.0
e 174 128 39.0
e 174 154 50.0
e 174 247 46.0
e 174 266 96.0
e 174 75 91.0
e 174 60 28.0
e 181 294 72.0
e 181 175 23.0
e 181 79 60.0
e 181 209 76.0
e 181 264 47.0
e 181 228 11.0
e 181 272 84.0
e 181 241 92.0
e 181 151 5.0
e 181 131 38.0
e 181 48 44.0
e 181 266 93.0
e 181 188 81.0
e 181 145 80.0
e 181 73 1.0
e 181 74 74.0
e 181 213 96.0
e 181 2 43.0
e 181 36 33.0
e 181 158 96.0
e 181 182 55.0
e 181 95 82.0
e 181 206 24.0
e 181 101 67.0
e 181 152 78.0
e 181 197 84.0
e 181 159 70.0
e 181 198 55.0
e 181 160 31.0
e 181 134 11.0
e 181 112 79.0
e 181 149 28.0
e 185 247 18.0
e 185 0 8.0
e 185 21 1.0
e 185 269 24.0
e 185 46 7.0
e 185 225 95.0
e 185 141 39.0
e 185 182 40.0
e 185 96 29.0
e 185 116 17.0
e 185 281 19.0
e 185 210 3.0
e 185 223 49.0
e 185 88 15.0
e 185 148 40.0
e 185 274 1.0
e 185 197 19.0
e 187 273 20.0
e 187 230 13.0
e 187 83 17.0
e 187 26 1.0
e 187 188 20.0
e 187 308 19.0
e 187 144 24.0
e 187 145 7.0
e 190 166 1.0
e 190 170 10.0
e 192 228 7.0
e 192 182 1.0
e 194 270 8.0
e 194 176 12.0
e 194 125 22.0
e 194 119 2.0
e 194 128 21.0
e 196 212 2.0
e 199 150 11.0
e 199 127 3.0
e 201 99 11.0
e 201 57 12.0
e 201 65 9.0
e 204 110 20.0
e 204 306 21.0
e 204 40 25.0
e 204 154 19.0
e 204 21 22.0
e 204 291 6.0
e 204 19 22.0
e 205 67 18.0
e 205 55 1.0
e 205 306 16.0
e 205 236 19.0
e 205 256 15.0
e 205 46 12.0
e 205 305 7.0
e 205 166 4.0
e 211 165 1.0
e 213 155 2.0
e 213 166 1.0
e 215 149 33.0
e 215 80 32.0
e 215 199 8.0
e 215 106 32.0
e 215 83 62.0
e 215 290 98.0
e 215 229 70.0
e 215 51 30.0
e 215 26 92.0
e 215 216 41.0
e 215 129 94.0
e 215 137 12.0
e 215 317 39.0
e 215 87 7.0
e 215 147 49.0
e 215 36 23.0
e 215 150 89.0
e 215 183 10.0
e 215 270 94.0
e 215 217 76.0
e 215 108 61.0
e 215 298 47.0
e 215 81 32.0
e 215 103 29.0
e 215 151 34.0
e 215 118 18.0
e 215 65 49.0
e 215 20 41.0
e 215 144 59.0
e 215 239 59.0
e 215 99 1.0
e 215 234 16.0
e 218 125 75.0
e 218 219 4.0
e 218 157 12.0
e 218 24 88.0
e 218 212 10.0
e 218 185 69.0
e 218 65 6.0
e 218 158 6.0
e 218 122 77.0
e 218 34 3.0
e 218 295 98.0
e 218 186 9.0
e 218 242 75.0
e 218 267 63.0
e 218 274 51.0
e 218 226 94.0
e 218 251 36.0
e 218 117 52.0
e 218 58 17.0
e 218 205 80.0
e 218 266 20.0
e 218 19 2.0
e 218 225 48.0
e 218 207 78.0
e 218 179 32.0
e 218 164 50.0
e 218 74 34.0
e 218 311 73.0
e 218 163 35.0
e 218 101 60.0
e 218 59 90.0
e 218 21 12.0
e 218 87 13.0
e 218 118 31.0
e 218 86 24.0
e 218 56 38.0
e 220 239 9.0
e 220 144 20.0
e 220 55 11.0
e 220 116 8.0
e 220 258 9.0
e 220 106 10.0
e 220 132 10.0
e 221 113 4.0
e 222 112 1.0
e 225 58 42.0
e 225 15 67.0
e 225 42 64.0
e 225 7 18.0
e 225 18 99.0
e 225 213 86.0
e 225 311 80.0
e 225 39 73.0
e 225 287 76.0
e 225 16 83.0
e 225 98 74.0
e 225 199 49.0
e 225 5 97.0
e 225 72 26.0
e 225 251 15.0
e 225 32 87.0
e 225 204 3.0
e 225 314 66.0
e 225 68 83.0
e 225 219 33.0
e 225 205 100.0
e 225 291 100.0
e 225 273 50.0
e 225 292 57.0
e 225 172 68.0
e 225 220 31.0
e 225 206 57.0
e 225 49 43.0
e 225 33 50.0
e 225 145 45.0
e 225 215 84.0
e 227 298 2.0
e 227 66 4.0
e 228 108 21.0
e 228 51 12.0
e 228 137 20.0
e 228 180 13.0
e 228 291 2.0
e 228 70 65.0
e 228 268 2.0
e 230 131 21.0
e 230 101 21.0
e 230 168 24.0
e 230 318 3.0
e 230 309 7.0
e 230 293 10.0
e 230 302 22.0
e 230 114 5.0
e 231 215 11.0
e 231 248 1.0
e 232 297 10.0
e 232 189 9.0
e 233 32 43.0
e 233 110 85.0
e 233 287 61.0
e 233 105 88.0
e 233 268 94.0
e 233 49 82.0
e 233 10 41.0
e 233 152 28.0
e 233 213 84.0
e 233 159 62.0
e 233 313 6.0
e 233 75 44.0
e 233 207 58.0
e 233 240 58.0
e 233 130 33.0
e 233 64 79.0
e 233 107 84.0
e 233 203 95.0
e 233 209 74.0
e 233 196 41.0
e 233 48 36.0
e 233 91 86.0
e 233 260 38.0
e 233 23 43.0
e 233 160 18.0
e 233 252 18.0
e 233 149 98.0
e 233 86 18.0
e 233 161 25.0
e 233 314 67.0
e 233 243 85.0
e 233 113 89.0
e 233 122 79.0
e 233 147 82.0
e 238 132 4.0
e 238 140 2.0
e 244 207 3.0
e 244 130 46.0
e 244 79 22.0
e 244 237 20.0
e 244 121 59.0
e 244 305 4.0
e 244 190 12.0
e 244 2 1.0
e 245 295 1.0
e 250 39 1.0
e 250 253 1.0
e 252 62 1.0
e 253 268 3.0
e 255 132 99.0
e 255 94 52.0
e 255 174 71.0
e 255 198 29.0
e 255 168 31.0
e 255 0 50.0
e 255 152 26.0
e 255 103 4.0
e 255 83 20.0
e 255 74 82.0
e 255 46 98.0
e 255 62 44.0
e 255 228 27.0
e 255 12 61.0
e 255 181 60.0
e 255 164 57.0
e 255 313 36.0
e 255 253 67.0
e 255 212 17.0
e 255 138 75.0
e 255 213 11.0
e 255 285 73.0
e 255 256 33.0
e 255 214 71.0
e 255 292 39.0
e 255 126 7.0
e 255 170 5.0
e 255 131 51.0
e 255 294 30.0
e 255 175 58.0
e 255 22 80.0
e 255 297 65.0
e 255 105 11.0
e 255 284 41.0
e 255 96 73.0
e 257 181 26.0
e 257 38 1.0
e 257 256 14.0
e 257 59 23.0
e 257 77 6.0
e 257 255 33.0
e 257 148 23.0
e 257 18 7.0
e 259 113 15.0
e 259 236 8.0
e 259 1 17.0
e 259 9 10.0
e 259 135 11.0
e 259 258 24.0
e 259 107 15.0
e 259 63 24.0
e 259 97 2.0
e 261 123 2.0
e 265 204 94.0
e 265 73 2.0
e 265 64 89.0
e 265 169 62.0
e 265 83 57.0
e 265 94 28.0
e 265 227 31.0
e 265 208 31.0
e 265 74 40.0
e 265 57 86.0
e 265 185 69.0
e 265 199 15.0
e 265 103 20.0
e 265 207 91.0
e 265 105 78.0
e 265 301 65.0
e 265 108 4.0
e 265 121 58.0
e 265 65 60.0
e 265 95 50.0
e 265 98 64.0
e 265 224 98.0
e 265 167 53.0
e 265 75 15.0
e 265 179 14.0
e 265 285 7.0
e 265 99 36.0
e 265 100 97.0
e 265 240 25.0
e 265 90 52.0
e 265 244 94.0
e 265 51 40.0
e 265 138 8.0
e 265 77 41.0
e 270 177 5.0
e 270 227 42.0
e 270 166 78.0
e 270 317 39.0
e 270 14 79.0
e 270 190 29.0
e 270 110 76.0
e 270 267 57.0
e 270 239 47.0
e 270 82 78.0
e 270 318 89.0
e 270 124 35.0
e 270 153 68.0
e 270 171 85.0
e 270 280 100.0
e 270 116 36.0
e 270 73 22.0
e 270 205 25.0
e 270 288 60.0
e 270 294 81.0
e 270 117 88.0
e 270 163 81.0
e 270 261 40.0
e 270 118 16.0
e 270 169 91.0
e 270 218 84.0
e 270 202 77.0
e 270 105 40.0
e 270 206 38.0
e 270 185 38.0
e 270 311 32.0
e 270 259 81.0
e 270 106 34.0
e 275 158 1.0
e 277 171 24.0
e 277 249 24.0
e 277 297 23.0
e 277 150 3.0
e 277 74 1.0
e 277 243 11.0
e 277 225 81.0
e 277 245 12.0
e 279 275 2.0
e 280 220 6.0
e 283 169 49.0
e 283 284 35.0
e 283 46 48.0
e 283 160 13.0
e 283 93 18.0
e 283 188 1.0
e 283 200 45.0
e 283 285 27.0
e 283 206 33.0
e 283 172 31.0
e 283 62 29.0
e 283 252 23.0
e 283 131 30.0
e 283 226 14.0
e 283 51 7.0
e 283 153 28.0
e 283 125 28.0
e 283 75 2.0
e 289 298 3.0
e 290 148 1.0
e 292 138 25.0
e 292 19 84.0
e 292 75 55.0
e 292 261 79.0
e 292 318 47.0
e 292 148 46.0
e 292 85 2.0
e 292 150 5.0
e 292 30 22.0
e 292 12 90.0
e 292 177 99.0
e 292 131 4.0
e 292 76 63.0
e 292 171 95.0
e 292 181 99.0
e 292 268 92.0
e 292 228 62.0
e 292 140 39.0
e 292 127 62.0
e 292 209 61.0
e 292 101 3.0
e 292 249 70.0
e 292 233 17.0
e 292 118 98.0
e 292 143 6.0
e 292 151 11.0
e 292 242 15.0
e 292 113 77.0
e 292 55 10.0
e 292 274 38.0
e 292 27 49.0
e 292 97 91.0
e 292 264 14.0
e 292 125 1.0
e 295 266 3.0
e 295 221 9.0
e 295 33 1.0
e 303 45 5.0
e 304 104 86.0
e 304 175 1.0
e 310 147 5.0
e 310 27 4.0
e 312 243 12.0
e 312 304 12.0
e 312 307 5.0
e 315 58 5.0
e 315 24 2.0
e 315 266 5.0
e 316 158 12.0
e 316 234 8.0
e 316 271 8.0
e 319 245 5.0
e 319 37 2.0
e 319 48 5.0
